c File: instances/24_0.30_3.col
c
c Description: Random graph of size 24 vertices and P(0.3) of edges between any two vertices.
p col 24 276
e 1 4
e 1 5
e 1 7
e 1 18
e 2 9
e 2 16
e 2 18
e 2 21
e 2 22
e 2 24
e 3 8
e 3 16
e 3 18
e 3 20
e 3 21
e 3 22
e 3 23
e 3 24
e 4 5
e 4 6
e 4 10
e 4 14
e 4 15
e 4 18
e 5 6
e 5 10
e 5 11
e 5 14
e 5 15
e 5 16
e 5 17
e 5 18
e 5 19
e 5 21
e 5 22
e 6 9
e 6 15
e 6 16
e 6 17
e 6 18
e 6 23
e 7 8
e 7 10
e 7 11
e 7 16
e 7 19
e 7 21
e 7 22
e 8 9
e 8 11
e 8 12
e 8 23
e 10 12
e 10 14
e 10 19
e 11 18
e 11 19
e 11 23
e 12 17
e 12 18
e 13 14
e 13 18
e 13 19
e 13 23
e 14 16
e 14 19
e 14 20
e 15 20
e 15 21
e 15 22
e 16 18
e 16 19
e 17 20
e 17 21
e 18 20
e 18 21
e 19 23
e 19 24
e 20 21
e 21 23
e 22 24